instances/shortest_path/discrete_knapsack_uncertainty/nohadani_3_5.kp
9681
75

[9.272444044368564 10.402635826976612 9.857017844561355 10.46437828458313 1.1382555639390155 7.6073024785976955]

[61 46 44 29 2 75]
